job_count = 30 ;
duration = [|11, 21, 2, 14, 4, 14|21, 22, 16, 2, 10, 11|12, 15, 2, 16, 7, 10|12, 22, 7, 15, 15, 9|24, 5, 11, 6, 2, 10|21, 11, 6, 16, 10, 10|21, 22, 14, 11, 8, 5|11, 8, 20, 14, 14, 14|6, 22, 8, 15, 3, 7|6, 13, 20, 13, 12, 9|2, 18, 19, 8, 5, 5|7, 18, 8, 17, 2, 5|15, 7, 7, 16, 10, 12|16, 11, 2, 15, 13, 14|2, 20, 5, 12, 16, 11|5, 14, 14, 16, 15, 8|21, 21, 14, 8, 2, 11|4, 7, 7, 9, 13, 3|11, 16, 2, 10, 14, 4|18, 2, 7, 7, 7, 5|24, 4, 13, 17, 13, 5|9, 20, 3, 16, 5, 5|13, 11, 17, 4, 11, 12|6, 10, 8, 3, 15, 14|13, 18, 18, 15, 10, 7|20, 22, 4, 12, 11, 14|11, 16, 13, 2, 10, 12|19, 8, 14, 3, 3, 9|23, 14, 6, 7, 16, 9|3, 11, 13, 8, 6, 8|] ;
machine_count = 6 ;
cost = [|26, 21, 32, 37, 38, 27|20, 25, 24, 28, 44, 48|20, 22, 37, 36, 29, 35|26, 27, 37, 25, 47, 53|20, 25, 22, 33, 46, 50|27, 19, 32, 22, 47, 41|23, 21, 25, 26, 43, 47|26, 18, 21, 23, 25, 52|17, 30, 34, 21, 46, 46|26, 28, 22, 27, 26, 50|30, 27, 28, 36, 37, 47|23, 27, 23, 24, 41, 28|19, 28, 36, 41, 25, 52|22, 25, 19, 30, 43, 51|22, 28, 36, 32, 37, 44|16, 24, 22, 40, 44, 36|29, 26, 23, 23, 46, 53|27, 19, 28, 31, 38, 30|31, 20, 30, 31, 27, 38|21, 23, 29, 33, 27, 49|24, 25, 28, 22, 43, 34|30, 30, 23, 30, 32, 30|17, 19, 19, 24, 43, 45|28, 20, 21, 32, 43, 51|20, 30, 21, 37, 30, 33|25, 33, 30, 36, 44, 40|25, 18, 28, 37, 36, 53|29, 27, 32, 30, 38, 42|21, 24, 28, 22, 26, 31|17, 24, 26, 39, 44, 40|] ;
deadline = [33, 33, 33, 33, 33, 33, 33, 33, 33, 33, 33, 33, 33, 33, 33, 33, 33, 33, 33, 33, 33, 33, 33, 33, 33, 33, 33, 33, 33, 33] ;
release = [0, 0, 0, 0, 0, 0, 0, 0, 0, 0, 0, 0, 0, 0, 0, 0, 0, 0, 0, 0, 0, 0, 0, 0, 0, 0, 0, 0, 0, 0] ;
resource = [|2, 2, 2, 2, 2, 2|8, 8, 8, 8, 8, 8|7, 7, 7, 7, 7, 7|6, 6, 6, 6, 6, 6|8, 8, 8, 8, 8, 8|2, 2, 2, 2, 2, 2|5, 5, 5, 5, 5, 5|5, 5, 5, 5, 5, 5|8, 8, 8, 8, 8, 8|1, 1, 1, 1, 1, 1|2, 2, 2, 2, 2, 2|9, 9, 9, 9, 9, 9|7, 7, 7, 7, 7, 7|8, 8, 8, 8, 8, 8|3, 3, 3, 3, 3, 3|7, 7, 7, 7, 7, 7|3, 3, 3, 3, 3, 3|4, 4, 4, 4, 4, 4|1, 1, 1, 1, 1, 1|2, 2, 2, 2, 2, 2|4, 4, 4, 4, 4, 4|8, 8, 8, 8, 8, 8|7, 7, 7, 7, 7, 7|1, 1, 1, 1, 1, 1|7, 7, 7, 7, 7, 7|2, 2, 2, 2, 2, 2|4, 4, 4, 4, 4, 4|9, 9, 9, 9, 9, 9|5, 5, 5, 5, 5, 5|1, 1, 1, 1, 1, 1|] ;
capacities = [10, 10, 10, 10, 10, 10] ;
